p tw 200 10000 1 
0 2 
0 3 
0 4 
0 5 
0 6 
0 7 
0 8 
0 9 
0 10 
0 11 
0 12 
0 13 
0 14 
0 15 
0 16 
0 17 
0 18 
0 19 
0 20 
0 21 
0 22 
0 23 
0 24 
0 25 
0 26 
0 27 
0 28 
0 29 
0 30 
0 31 
0 32 
0 33 
0 34 
0 35 
0 36 
0 37 
0 38 
0 39 
0 40 
0 41 
0 42 
0 43 
0 44 
0 45 
0 46 
0 47 
0 48 
0 49 
0 50 
0 51 
0 52 
0 53 
0 54 
0 55 
0 56 
0 57 
0 58 
0 59 
0 60 
0 61 
0 62 
0 63 
0 64 
0 65 
0 66 
0 67 
0 68 
0 69 
0 70 
0 71 
0 72 
0 73 
0 74 
0 75 
0 76 
0 77 
0 78 
0 79 
0 80 
0 81 
0 82 
0 83 
0 84 
0 85 
0 86 
0 87 
0 88 
0 89 
0 90 
0 91 
0 92 
0 93 
0 94 
0 95 
0 96 
0 97 
0 98 
0 99 
0 100 
1 101 
1 102 
1 103 
1 104 
1 105 
1 106 
1 107 
1 108 
1 109 
1 110 
1 111 
1 112 
1 113 
1 114 
1 115 
1 116 
1 117 
1 118 
1 119 
1 120 
1 121 
1 122 
1 123 
1 124 
1 125 
1 126 
1 127 
1 128 
1 129 
1 130 
1 131 
1 132 
1 133 
1 134 
1 135 
1 136 
1 137 
1 138 
1 139 
1 140 
1 141 
1 142 
1 143 
1 144 
1 145 
1 146 
1 147 
1 148 
1 149 
1 150 
1 151 
1 152 
1 153 
1 154 
1 155 
1 156 
1 157 
1 158 
1 159 
1 160 
1 161 
1 162 
1 163 
1 164 
1 165 
1 166 
1 167 
1 168 
1 169 
1 170 
1 171 
1 172 
1 173 
1 174 
1 175 
1 176 
1 177 
1 178 
1 179 
1 180 
1 181 
1 182 
1 183 
1 184 
1 185 
1 186 
1 187 
1 188 
1 189 
1 190 
1 191 
1 192 
1 193 
1 194 
1 195 
1 196 
1 197 
1 198 
1 199 
1 200 
1 109 
1 112 
1 127 
1 133 
1 138 
1 142 
1 146 
1 166 
1 174 
1 189 
2 101 
2 104 
2 124 
2 132 
2 135 
2 139 
2 163 
2 164 
2 177 
2 181 
3 110 
3 115 
3 149 
3 160 
3 171 
3 173 
3 180 
3 193 
3 194 
3 198 
4 102 
4 111 
4 130 
4 147 
4 165 
4 168 
4 172 
4 186 
4 190 
4 191 
5 105 
5 106 
5 129 
5 140 
5 148 
5 150 
5 162 
5 175 
5 184 
5 195 
6 110 
6 128 
6 145 
6 149 
6 157 
6 160 
6 169 
6 173 
6 193 
6 198 
7 110 
7 145 
7 149 
7 151 
7 160 
7 171 
7 173 
7 180 
7 193 
7 194 
8 112 
8 123 
8 136 
8 138 
8 153 
8 166 
8 176 
8 183 
8 192 
8 200 
9 103 
9 119 
9 143 
9 152 
9 167 
9 185 
9 186 
9 190 
9 191 
9 197 
10 102 
10 130 
10 144 
10 147 
10 167 
10 168 
10 172 
10 182 
10 186 
10 197 
11 115 
11 120 
11 122 
11 126 
11 128 
11 141 
11 157 
11 169 
11 187 
11 198 
12 112 
12 123 
12 127 
12 138 
12 142 
12 146 
12 174 
12 178 
12 183 
12 192 
13 115 
13 120 
13 122 
13 149 
13 157 
13 160 
13 180 
13 187 
13 194 
13 198 
14 110 
14 126 
14 128 
14 141 
14 145 
14 151 
14 169 
14 171 
14 173 
14 193 
15 102 
15 103 
15 119 
15 147 
15 159 
15 167 
15 185 
15 190 
15 191 
15 197 
16 104 
16 106 
16 124 
16 135 
16 139 
16 148 
16 164 
16 175 
16 177 
16 184 
17 107 
17 112 
17 123 
17 142 
17 166 
17 174 
17 176 
17 183 
17 192 
17 200 
18 102 
18 130 
18 147 
18 165 
18 167 
18 168 
18 172 
18 182 
18 186 
18 190 
19 102 
19 103 
19 111 
19 130 
19 143 
19 159 
19 182 
19 185 
19 190 
19 197 
20 116 
20 117 
20 121 
20 125 
20 137 
20 154 
20 158 
20 188 
20 196 
20 199 
21 110 
21 126 
21 141 
21 145 
21 157 
21 169 
21 187 
21 193 
21 194 
21 198 
22 116 
22 121 
22 137 
22 155 
22 158 
22 161 
22 170 
22 179 
22 196 
22 199 
23 108 
23 113 
23 114 
23 121 
23 125 
23 134 
23 155 
23 179 
23 188 
23 199 
24 103 
24 119 
24 143 
24 144 
24 152 
24 159 
24 167 
24 182 
24 185 
24 197 
25 113 
25 116 
25 117 
25 121 
25 134 
25 154 
25 156 
25 158 
25 161 
25 188 
26 129 
26 132 
26 140 
26 148 
26 150 
26 162 
26 163 
26 164 
26 181 
26 195 
27 104 
27 105 
27 106 
27 124 
27 129 
27 132 
27 139 
27 148 
27 162 
27 184 
28 111 
28 119 
28 147 
28 152 
28 159 
28 168 
28 172 
28 190 
28 191 
28 197 
29 107 
29 109 
29 112 
29 123 
29 136 
29 166 
29 174 
29 176 
29 183 
29 200 
30 103 
30 111 
30 119 
30 143 
30 144 
30 152 
30 159 
30 185 
30 191 
30 197 
31 102 
31 111 
31 130 
31 144 
31 147 
31 159 
31 165 
31 168 
31 172 
31 182 
32 104 
32 106 
32 124 
32 132 
32 135 
32 139 
32 148 
32 162 
32 164 
32 184 
33 107 
33 123 
33 131 
33 136 
33 153 
33 176 
33 178 
33 183 
33 192 
33 200 
34 101 
34 135 
34 140 
34 150 
34 162 
34 163 
34 164 
34 175 
34 181 
34 195 
35 119 
35 144 
35 147 
35 152 
35 165 
35 167 
35 168 
35 172 
35 186 
35 191 
36 108 
36 114 
36 118 
36 125 
36 137 
36 155 
36 170 
36 179 
36 196 
36 199 
37 109 
37 123 
37 127 
37 131 
37 138 
37 142 
37 146 
37 166 
37 174 
37 189 
38 120 
38 122 
38 126 
38 145 
38 149 
38 151 
38 157 
38 169 
38 187 
38 194 
39 116 
39 118 
39 134 
39 137 
39 155 
39 158 
39 161 
39 170 
39 179 
39 199 
40 107 
40 109 
40 127 
40 131 
40 133 
40 142 
40 146 
40 174 
40 178 
40 189 
41 108 
41 114 
41 117 
41 121 
41 125 
41 137 
41 154 
41 188 
41 196 
41 199 
42 110 
42 115 
42 128 
42 141 
42 160 
42 171 
42 173 
42 180 
42 193 
42 198 
43 102 
43 103 
43 111 
43 130 
43 147 
43 165 
43 185 
43 186 
43 190 
43 191 
44 108 
44 113 
44 114 
44 117 
44 118 
44 125 
44 134 
44 154 
44 156 
44 188 
45 127 
45 131 
45 133 
45 138 
45 142 
45 146 
45 153 
45 178 
45 189 
45 192 
46 111 
46 130 
46 144 
46 147 
46 152 
46 159 
46 165 
46 168 
46 172 
46 182 
47 113 
47 116 
47 118 
47 134 
47 155 
47 156 
47 158 
47 161 
47 170 
47 179 
48 101 
48 124 
48 129 
48 139 
48 150 
48 162 
48 163 
48 164 
48 175 
48 181 
49 108 
49 114 
49 117 
49 121 
49 125 
49 134 
49 137 
49 154 
49 156 
49 170 
50 124 
50 129 
50 148 
50 150 
50 162 
50 163 
50 164 
50 175 
50 181 
50 195 
51 108 
51 114 
51 121 
51 125 
51 134 
51 137 
51 154 
51 155 
51 156 
51 170 
52 108 
52 113 
52 114 
52 118 
52 134 
52 155 
52 156 
52 161 
52 170 
52 179 
53 107 
53 112 
53 133 
53 136 
53 153 
53 176 
53 178 
53 183 
53 192 
53 200 
54 109 
54 127 
54 131 
54 133 
54 136 
54 138 
54 146 
54 153 
54 178 
54 189 
55 113 
55 116 
55 117 
55 118 
55 158 
55 161 
55 179 
55 188 
55 196 
55 199 
56 104 
56 105 
56 106 
56 124 
56 129 
56 132 
56 139 
56 148 
56 177 
56 184 
57 109 
57 112 
57 133 
57 138 
57 142 
57 166 
57 174 
57 176 
57 189 
57 200 
58 107 
58 112 
58 133 
58 142 
58 153 
58 166 
58 176 
58 183 
58 192 
58 200 
59 108 
59 114 
59 121 
59 134 
59 137 
59 154 
59 155 
59 156 
59 161 
59 188 
60 103 
60 111 
60 119 
60 143 
60 152 
60 159 
60 165 
60 185 
60 190 
60 191 
61 109 
61 123 
61 127 
61 131 
61 136 
61 138 
61 146 
61 174 
61 178 
61 189 
62 102 
62 103 
62 119 
62 143 
62 167 
62 185 
62 186 
62 190 
62 191 
62 197 
63 119 
63 143 
63 144 
63 152 
63 159 
63 167 
63 168 
63 172 
63 182 
63 197 
64 110 
64 128 
64 145 
64 149 
64 151 
64 157 
64 160 
64 173 
64 180 
64 193 
65 104 
65 105 
65 106 
65 132 
65 135 
65 140 
65 148 
65 177 
65 184 
65 195 
66 109 
66 112 
66 123 
66 136 
66 138 
66 153 
66 166 
66 176 
66 183 
66 200 
67 104 
67 105 
67 132 
67 135 
67 140 
67 148 
67 163 
67 177 
67 181 
67 195 
68 110 
68 128 
68 141 
68 145 
68 160 
68 171 
68 180 
68 187 
68 193 
68 198 
69 115 
69 120 
69 122 
69 126 
69 149 
69 151 
69 157 
69 169 
69 173 
69 194 
70 110 
70 128 
70 145 
70 149 
70 160 
70 171 
70 180 
70 187 
70 193 
70 198 
71 115 
71 120 
71 122 
71 126 
71 141 
71 151 
71 171 
71 180 
71 187 
71 194 
72 102 
72 111 
72 130 
72 143 
72 144 
72 168 
72 172 
72 182 
72 186 
72 197 
73 113 
73 116 
73 121 
73 125 
73 155 
73 158 
73 170 
73 179 
73 196 
73 199 
74 115 
74 120 
74 122 
74 128 
74 149 
74 151 
74 160 
74 171 
74 173 
74 180 
75 101 
75 104 
75 105 
75 106 
75 124 
75 135 
75 139 
75 175 
75 177 
75 184 
76 115 
76 120 
76 122 
76 126 
76 141 
76 151 
76 157 
76 169 
76 173 
76 194 
77 101 
77 104 
77 105 
77 106 
77 132 
77 135 
77 139 
77 140 
77 177 
77 184 
78 101 
78 135 
78 140 
78 150 
78 163 
78 164 
78 175 
78 177 
78 181 
78 195 
79 120 
79 122 
79 126 
79 128 
79 141 
79 145 
79 151 
79 157 
79 169 
79 187 
80 108 
80 113 
80 114 
80 117 
80 121 
80 125 
80 154 
80 156 
80 188 
80 196 
81 101 
81 106 
81 124 
81 129 
81 139 
81 150 
81 162 
81 164 
81 175 
81 184 
82 110 
82 115 
82 126 
82 141 
82 151 
82 171 
82 180 
82 187 
82 193 
82 194 
83 101 
83 105 
83 129 
83 132 
83 140 
83 150 
83 162 
83 163 
83 181 
83 195 
84 107 
84 112 
84 127 
84 133 
84 136 
84 146 
84 166 
84 174 
84 183 
84 192 
85 113 
85 116 
85 117 
85 118 
85 125 
85 158 
85 170 
85 179 
85 196 
85 199 
86 115 
86 120 
86 122 
86 126 
86 141 
86 169 
86 171 
86 187 
86 194 
86 198 
87 107 
87 109 
87 131 
87 133 
87 136 
87 153 
87 166 
87 176 
87 189 
87 200 
88 101 
88 105 
88 106 
88 124 
88 132 
88 135 
88 150 
88 162 
88 184 
88 195 
89 102 
89 103 
89 130 
89 143 
89 144 
89 165 
89 167 
89 182 
89 185 
89 186 
90 109 
90 123 
90 131 
90 138 
90 142 
90 153 
90 176 
90 178 
90 189 
90 200 
91 107 
91 123 
91 127 
91 131 
91 136 
91 146 
91 153 
91 178 
91 183 
91 192 
92 108 
92 114 
92 117 
92 118 
92 134 
92 137 
92 154 
92 156 
92 161 
92 188 
93 103 
93 119 
93 147 
93 152 
93 159 
93 165 
93 167 
93 185 
93 190 
93 191 
94 107 
94 127 
94 131 
94 133 
94 142 
94 146 
94 174 
94 178 
94 189 
94 192 
95 120 
95 122 
95 128 
95 145 
95 149 
95 157 
95 160 
95 169 
95 173 
95 198 
96 111 
96 130 
96 143 
96 144 
96 152 
96 165 
96 168 
96 172 
96 182 
96 186 
97 116 
97 117 
97 118 
97 137 
97 154 
97 156 
97 158 
97 161 
97 170 
97 196 
98 104 
98 129 
98 139 
98 140 
98 148 
98 163 
98 164 
98 175 
98 177 
98 181 
99 101 
99 105 
99 129 
99 140 
99 150 
99 163 
99 175 
99 177 
99 181 
99 195 
100 113 
100 116 
100 118 
100 155 
100 158 
100 161 
100 179 
100 188 
100 196 
100 199 
